
===== New CPLEX run =====
Instance: /home/yorig/tuner/mpils-tests/instances/miplib/easy/lotsize.mps
Config: /scratch/yorig/mpils-results-grid-seconds-5-no-mip-start/easy/16proc/seed-3/4_lotsize_seed-3_20260502_223218/iterated_local_search/run_3_worker_3/ils_config_12504488054055072414.prm
========================

Selected objective sense:  MINIMIZE
Selected objective  name:  R1921
Selected RHS        name:  B
Selected bound      name:  BOUND
Version identifier: 22.1.2.0 | 2024-11-26 | 0edbb82fd
CPXPARAM_Threads                                 8
CPXPARAM_Parallel                                1
CPXPARAM_MIP_Cuts_Cliques                        2
CPXPARAM_MIP_Strategy_VariableSelect             3
CPXPARAM_MIP_Cuts_FlowCovers                     1
CPXPARAM_MIP_Cuts_Implied                        1
CPXPARAM_MIP_Cuts_PathCut                        2
CPXPARAM_MIP_Cuts_MIRCut                         -1
CPXPARAM_MIP_Cuts_Disjunctive                    -1
CPXPARAM_Emphasis_MIP                            1
CPXPARAM_MIP_Strategy_BBInterval                 0
CPXPARAM_TimeLimit                               5
CPXPARAM_MIP_Limits_CutsFactor                   4
Tried aggregator 1 time.
MIP Presolve eliminated 595 rows and 0 columns.
MIP Presolve added 1190 rows and 0 columns.
MIP Presolve modified 10 coefficients.
Reduced MIP has 2515 rows, 2985 columns, and 7755 nonzeros.
Reduced MIP has 1195 binaries, 0 generals, 0 SOSs, and 0 indicators.
Presolve time = 0.00 sec. (4.53 ticks)
Probing fixed 0 vars, tightened 5487 bounds.
Probing time = 0.01 sec. (18.38 ticks)
Tried aggregator 2 times.
Detecting symmetries...
MIP Presolve modified 1206 coefficients.
Aggregator did 10 substitutions.
Reduced MIP has 2505 rows, 2975 columns, and 7735 nonzeros.
Reduced MIP has 1195 binaries, 0 generals, 0 SOSs, and 0 indicators.
Presolve time = 0.00 sec. (6.66 ticks)
Probing fixed 0 vars, tightened 2401 bounds.
Probing time = 0.00 sec. (6.41 ticks)
Clique table members: 190.
MIP emphasis: integer feasibility.
MIP search method: dynamic search.
Parallel mode: deterministic, using up to 8 threads.
Root relaxation solution time = 0.01 sec. (9.71 ticks)

        Nodes                                         Cuts/
   Node  Left     Objective  IInf  Best Integer    Best Bound    ItCnt     Gap

      0     0   348385.3466   472                 348385.3466      882         
      0     0   527202.7677   563                   Cuts: 726     1982         
      0     0   760452.5090   617                   Cuts: 726     2917         
*     0+    0                       1.01740e+07   760452.5090            92.53%
*     0+    0                      7973370.0000   760452.5090            90.46%
      0     0   907071.1650   739  7973370.0000     Cuts: 726     3745   88.62%
Detecting symmetries...
      0     2   907071.1650   739  7973370.0000   907071.1650     3745   88.62%
Elapsed time = 0.42 sec. (631.24 ticks, tree = 0.02 MB, solutions = 2)
     12     7   953536.1060   793  7973370.0000   926403.9556     4112   88.38%
     53    45  1014919.2869   794  7973370.0000   934558.0502     6814   88.28%
    102    92  1007480.7765   788  7973370.0000   938234.5430     7423   88.23%
    156   135   995151.6583   778  7973370.0000   940470.1838     8066   88.20%
    207   177  1000266.5749   779  7973370.0000   942588.9943     8666   88.18%
    258   228   946925.9640   758  7973370.0000   945532.5255     9298   88.14%
    308   284   972055.9772   749  7973370.0000   947294.7098     9845   88.12%
    364   337   995002.3607   731  7973370.0000   947294.7098    10413   88.12%
    425   368  1066640.1616   723  7973370.0000   947294.7098    10740   88.12%
    645   606  1166486.4348   670  7973370.0000   947294.7098    12391   88.12%
Elapsed time = 2.48 sec. (3752.19 ticks, tree = 1.11 MB, solutions = 2)
    842   755  1167309.5018   656  7973370.0000   947294.7098    13581   88.12%
   1044   927  1267634.7711   596  7973370.0000   947294.7098    15115   88.12%
   1263  1181  1280121.6782   577  7973370.0000   947294.7098    17288   88.12%
*  1421+ 1282                      5193737.0000   947294.7098            81.76%
*  1423+ 1282                      4460939.0000   947294.7098            78.76%
*  1426+ 1282                      2809755.0000   947294.7098            66.29%
*  1426+ 1282                      2686027.0000   947294.7098            64.73%
*  1429+ 1282                      2684229.0000   947294.7098            64.71%
*  1430+ 1282                      2650470.0000   947294.7098            64.26%
   1492  1426  1281099.7902   520  2650470.0000   947294.7098    19121   64.26%
*  1511+ 1411                      2641396.0000   947294.7098            64.14%
*  1512+ 1411                      2584308.0000   947294.7098            63.34%
*  1512+ 1411                      2491147.0000   947294.7098            61.97%

Clique cuts applied:  0
Cover cuts applied:  10
Implied bound cuts applied:  15
Flow cuts applied:  522
Mixed integer rounding cuts applied:  283
Flow path cuts applied:  323
Multi commodity flow cuts applied:  13
Gomory fractional cuts applied:  77

Root node processing (before b&c):
  Real time             =    0.41 sec. (629.11 ticks)
Parallel b&c, 8 threads:
  Real time             =    4.59 sec. (7179.88 ticks)
  Sync time (average)   =    0.44 sec.
  Wait time (average)   =    0.00 sec.
                          ------------
Total (root+branch&cut) =    5.00 sec. (7808.98 ticks)
Gap: 61.97%
Upper bound: 2.49115e+06
Lower bound: 947295
End of CPLEX run. Time: 5.00508 seconds

===== New CPLEX run =====
Instance: /home/yorig/tuner/mpils-tests/instances/miplib/easy/lotsize.mps
Config: /scratch/yorig/mpils-results-grid-seconds-5-no-mip-start/easy/16proc/seed-3/4_lotsize_seed-3_20260502_223218/iterated_local_search/run_3_worker_3/ils_config_1640129582901192321.prm
========================

Selected objective sense:  MINIMIZE
Selected objective  name:  R1921
Selected RHS        name:  B
Selected bound      name:  BOUND
Version identifier: 22.1.2.0 | 2024-11-26 | 0edbb82fd
CPXPARAM_Threads                                 8
CPXPARAM_Parallel                                1
CPXPARAM_MIP_Cuts_Cliques                        2
CPXPARAM_MIP_Strategy_VariableSelect             3
CPXPARAM_MIP_Cuts_FlowCovers                     1
CPXPARAM_MIP_Cuts_Implied                        1
CPXPARAM_MIP_Cuts_PathCut                        2
CPXPARAM_MIP_Cuts_MIRCut                         -1
CPXPARAM_MIP_Cuts_Disjunctive                    -1
CPXPARAM_Emphasis_MIP                            2
CPXPARAM_MIP_Strategy_BBInterval                 0
CPXPARAM_TimeLimit                               5
CPXPARAM_MIP_Limits_CutsFactor                   4
Tried aggregator 1 time.
MIP Presolve eliminated 595 rows and 0 columns.
MIP Presolve added 1190 rows and 0 columns.
MIP Presolve modified 10 coefficients.
Reduced MIP has 2515 rows, 2985 columns, and 7755 nonzeros.
Reduced MIP has 1195 binaries, 0 generals, 0 SOSs, and 0 indicators.
Presolve time = 0.00 sec. (4.53 ticks)
Probing fixed 0 vars, tightened 5487 bounds.
Probing time = 0.01 sec. (18.38 ticks)
Tried aggregator 2 times.
Detecting symmetries...
MIP Presolve modified 1206 coefficients.
Aggregator did 10 substitutions.
Reduced MIP has 2505 rows, 2975 columns, and 7735 nonzeros.
Reduced MIP has 1195 binaries, 0 generals, 0 SOSs, and 0 indicators.
Presolve time = 0.00 sec. (6.66 ticks)
Probing fixed 0 vars, tightened 2401 bounds.
Probing time = 0.00 sec. (6.41 ticks)
Clique table members: 190.
MIP emphasis: optimality.
MIP search method: dynamic search.
Parallel mode: deterministic, using up to 8 threads.
Root relaxation solution time = 0.01 sec. (9.71 ticks)

        Nodes                                         Cuts/
   Node  Left     Objective  IInf  Best Integer    Best Bound    ItCnt     Gap

      0     0   348385.3466   472                 348385.3466      882         
      0     0   527202.7677   563                   Cuts: 726     1982         
      0     0   760452.5090   617                   Cuts: 726     2917         
*     0+    0                       1.01740e+07   760452.5090            92.53%
*     0+    0                      7973370.0000   760452.5090            90.46%
      0     0   907071.1650   739  7973370.0000     Cuts: 726     3745   88.62%
      0     0   995485.2845   690  7973370.0000     Cuts: 726     4450   87.51%
      0     0  1051993.5106   754  7973370.0000     Cuts: 678     4995   86.81%
Detecting symmetries...
      0     0  1087000.3190   810  7973370.0000     Cuts: 515     5465   86.37%
      0     0  1108699.2723   826  7973370.0000     Cuts: 414     5858   86.09%
      0     0  1124545.6022   809  7973370.0000     Cuts: 355     6244   85.90%
*     0+    0                      1973822.0000  1124545.6022            43.03%
      0     0  1135876.3337   835  1973822.0000     Cuts: 294     6589   42.45%
      0     0  1142849.7156   855  1973822.0000     Cuts: 270     6835   42.10%
      0     0  1149998.0922   875  1973822.0000     Cuts: 244     7096   41.74%
      0     0  1154408.3758   869  1973822.0000     Cuts: 181     7315   41.51%
      0     0  1156988.3852   859  1973822.0000     Cuts: 175     7469   41.38%
      0     0  1159333.9595   875  1973822.0000     Cuts: 145     7631   41.26%
      0     0  1160963.6683   863  1973822.0000     Cuts: 119     7783   41.18%
      0     0  1163003.4992   890  1973822.0000     Cuts: 125     7933   41.08%
      0     0  1164325.7461   879  1973822.0000      Cuts: 97     8023   41.01%
      0     0  1165838.5467   874  1973822.0000      Cuts: 94     8151   40.93%
      0     0  1166987.4276   883  1973822.0000     Cuts: 110     8268   40.88%
      0     0  1167912.8367   870  1973822.0000      Cuts: 58     8375   40.83%
      0     0  1169147.3028   872  1973822.0000      Cuts: 48     8467   40.77%
      0     0  1170093.5037   881  1973822.0000      Cuts: 58     8563   40.72%
      0     0  1170812.6209   880  1973822.0000      Cuts: 64     8678   40.68%
      0     0  1171891.9563   867  1973822.0000      Cuts: 66     8777   40.63%
      0     0  1172661.1203   883  1973822.0000      Cuts: 54     8883   40.59%
      0     0  1173187.8130   891  1973822.0000     Cuts: 133     8968   40.56%
      0     0  1173970.1884   881  1973822.0000      Cuts: 28     9048   40.52%
      0     0  1174400.6717   884  1973822.0000      Cuts: 47     9126   40.50%
      0     0  1174934.7093   880  1973822.0000      Cuts: 46     9211   40.47%
      0     0  1175209.4736   878  1973822.0000      Cuts: 67     9271   40.46%
      0     0  1175399.6782   882  1973822.0000      Cuts: 22     9312   40.45%
Detecting symmetries...
      0     2  1175399.6782   882  1973822.0000  1175399.6782     9312   40.45%
Elapsed time = 3.65 sec. (6282.62 ticks, tree = 0.02 MB, solutions = 3)
      1     3  1175763.4232   871  1973822.0000  1175407.3920     9443   40.45%
      3     4  1177107.2648   864  1973822.0000  1175407.3920     9481   40.45%
      7     6  1177569.6506   860  1973822.0000  1177524.2103     9740   40.34%
     15    12  1227625.7977   850  1973822.0000  1178285.4774    10861   40.30%
     21    17  1196961.7407   874  1973822.0000  1178506.2142    11252   40.29%
     28    25  1193421.1407   856  1973822.0000  1178728.9897    11463   40.28%
     36    26  1194429.7001   856  1973822.0000  1178847.6645    11493   40.28%
     44    33  1257433.0645   856  1973822.0000  1179617.1675    11700   40.24%
     52    34  1235246.3370   855  1973822.0000  1179617.1675    11701   40.24%

Clique cuts applied:  0
Cover cuts applied:  10
Implied bound cuts applied:  22
Flow cuts applied:  866
Mixed integer rounding cuts applied:  511
Flow path cuts applied:  81
Multi commodity flow cuts applied:  68
Gomory fractional cuts applied:  7

Root node processing (before b&c):
  Real time             =    3.64 sec. (6274.84 ticks)
Parallel b&c, 8 threads:
  Real time             =    1.37 sec. (2799.63 ticks)
  Sync time (average)   =    0.30 sec.
  Wait time (average)   =    0.00 sec.
                          ------------
Total (root+branch&cut) =    5.00 sec. (9074.46 ticks)
Gap: 40.22%
Upper bound: 1.97382e+06
Lower bound: 1.17988e+06
End of CPLEX run. Time: 5.00486 seconds

===== New CPLEX run =====
Instance: /home/yorig/tuner/mpils-tests/instances/miplib/easy/lotsize.mps
Config: /scratch/yorig/mpils-results-grid-seconds-5-no-mip-start/easy/16proc/seed-3/4_lotsize_seed-3_20260502_223218/iterated_local_search/run_3_worker_3/ils_config_15002189909803629036.prm
========================

Selected objective sense:  MINIMIZE
Selected objective  name:  R1921
Selected RHS        name:  B
Selected bound      name:  BOUND
Version identifier: 22.1.2.0 | 2024-11-26 | 0edbb82fd
CPXPARAM_Threads                                 8
CPXPARAM_Parallel                                1
CPXPARAM_MIP_Cuts_Cliques                        2
CPXPARAM_MIP_Strategy_VariableSelect             3
CPXPARAM_MIP_Cuts_FlowCovers                     1
CPXPARAM_MIP_Cuts_Implied                        1
CPXPARAM_MIP_Limits_GomoryCand                   10
CPXPARAM_MIP_Cuts_PathCut                        2
CPXPARAM_MIP_Cuts_MIRCut                         -1
CPXPARAM_MIP_Cuts_Disjunctive                    -1
CPXPARAM_Emphasis_MIP                            2
CPXPARAM_MIP_Strategy_BBInterval                 0
CPXPARAM_TimeLimit                               5
CPXPARAM_MIP_Limits_CutsFactor                   4
Tried aggregator 1 time.
MIP Presolve eliminated 595 rows and 0 columns.
MIP Presolve added 1190 rows and 0 columns.
MIP Presolve modified 10 coefficients.
Reduced MIP has 2515 rows, 2985 columns, and 7755 nonzeros.
Reduced MIP has 1195 binaries, 0 generals, 0 SOSs, and 0 indicators.
Presolve time = 0.00 sec. (4.53 ticks)
Probing fixed 0 vars, tightened 5487 bounds.
Probing time = 0.01 sec. (18.38 ticks)
Tried aggregator 2 times.
Detecting symmetries...
MIP Presolve modified 1206 coefficients.
Aggregator did 10 substitutions.
Reduced MIP has 2505 rows, 2975 columns, and 7735 nonzeros.
Reduced MIP has 1195 binaries, 0 generals, 0 SOSs, and 0 indicators.
Presolve time = 0.00 sec. (6.66 ticks)
Probing fixed 0 vars, tightened 2401 bounds.
Probing time = 0.00 sec. (6.41 ticks)
Clique table members: 190.
MIP emphasis: optimality.
MIP search method: dynamic search.
Parallel mode: deterministic, using up to 8 threads.
Root relaxation solution time = 0.01 sec. (9.71 ticks)

        Nodes                                         Cuts/
   Node  Left     Objective  IInf  Best Integer    Best Bound    ItCnt     Gap

      0     0   348385.3466   472                 348385.3466      882         
      0     0   582561.7294   438                   Cuts: 726     1828         
      0     0   814794.4970   699                   Cuts: 726     2680         
      0     0   934396.2088   704                   Cuts: 726     3350         
*     0+    0                       1.01740e+07   934396.2088            90.82%
*     0+    0                      7973370.0000   934396.2088            88.28%
      0     0  1012559.4072   773  7973370.0000     Cuts: 726     3985   87.30%
      0     0  1058590.1404   788  7973370.0000     Cuts: 552     4492   86.72%
Detecting symmetries...
      0     0  1089763.5866   775  7973370.0000     Cuts: 475     4934   86.33%
      0     0  1111112.6690   823  7973370.0000     Cuts: 374     5356   86.06%
      0     0  1124947.7117   831  7973370.0000     Cuts: 292     5653   85.89%
*     0+    0                      1973822.0000  1124947.7117            43.01%
      0     0  1136494.7461   832  1973822.0000     Cuts: 241     5951   42.42%
      0     0  1142773.8769   875  1973822.0000     Cuts: 206     6180   42.10%
      0     0  1148317.6256   869  1973822.0000     Cuts: 180     6386   41.82%
      0     0  1151019.1345   858  1973822.0000     Cuts: 125     6550   41.69%
      0     0  1153646.3700   851  1973822.0000     Cuts: 139     6693   41.55%
      0     0  1155562.1403   871  1973822.0000     Cuts: 108     6840   41.46%
      0     0  1157323.7405   890  1973822.0000     Cuts: 148     6985   41.37%
      0     0  1160295.9508   872  1973822.0000     Cuts: 142     7149   41.22%
      0     0  1162162.5955   890  1973822.0000     Cuts: 126     7307   41.12%
      0     0  1163684.1040   895  1973822.0000     Cuts: 146     7465   41.04%
      0     0  1165197.9073   894  1973822.0000     Cuts: 109     7595   40.97%
      0     0  1165897.3629   893  1973822.0000      Cuts: 65     7701   40.93%
      0     0  1166675.6832   887  1973822.0000      Cuts: 65     7812   40.89%
      0     0  1167522.3981   902  1973822.0000      Cuts: 87     7919   40.85%
      0     0  1168058.7675   877  1973822.0000      Cuts: 85     8055   40.82%
      0     0  1168610.5580   886  1973822.0000      Cuts: 82     8179   40.79%
      0     0  1169661.7847   886  1973822.0000      Cuts: 81     8295   40.74%
      0     0  1171548.4503   878  1973822.0000      Cuts: 48     8421   40.65%
      0     0  1172228.8256   883  1973822.0000      Cuts: 84     8522   40.61%
      0     0  1172765.9679   883  1973822.0000      Cuts: 55     8609   40.58%
      0     0  1173073.9032   883  1973822.0000      Cuts: 48     8683   40.57%
      0     0  1173328.1319   888  1973822.0000      Cuts: 37     8746   40.56%
Detecting symmetries...
      0     2  1173328.1319   888  1973822.0000  1173328.1319     8746   40.56%
Elapsed time = 3.43 sec. (5716.75 ticks, tree = 0.02 MB, solutions = 3)
      1     3  1173670.8586   877  1973822.0000  1173333.7411     8893   40.56%
      3     4  1174229.3655   876  1973822.0000  1173333.7411     8894   40.56%
      6     5  1211726.2338   864  1973822.0000  1174229.3655     9419   40.51%
      9     7  1244555.3173   881  1973822.0000  1174259.6661     9637   40.51%
     16    10  1175285.2608   876  1973822.0000  1174749.1067    10068   40.48%
     19    16  1208875.6952   881  1973822.0000  1175096.3998    10806   40.47%
     27    17  1210294.6682   883  1973822.0000  1175174.3376    10826   40.46%
     35    25  1213694.9854   874  1973822.0000  1175582.5508    11320   40.44%
     43    29  1219182.6730   876  1973822.0000  1175975.4570    11670   40.42%

Clique cuts applied:  0
Cover cuts applied:  10
Implied bound cuts applied:  24
Flow cuts applied:  866
Mixed integer rounding cuts applied:  525
Flow path cuts applied:  89
Multi commodity flow cuts applied:  68

Root node processing (before b&c):
  Real time             =    3.42 sec. (5709.17 ticks)
Parallel b&c, 8 threads:
  Real time             =    1.59 sec. (3224.86 ticks)
  Sync time (average)   =    0.30 sec.
  Wait time (average)   =    0.00 sec.
                          ------------
Total (root+branch&cut) =    5.00 sec. (8934.03 ticks)
Gap: 40.42%
Upper bound: 1.97382e+06
Lower bound: 1.17598e+06
End of CPLEX run. Time: 5.00495 seconds

===== New CPLEX run =====
Instance: /home/yorig/tuner/mpils-tests/instances/miplib/easy/lotsize.mps
Config: /scratch/yorig/mpils-results-grid-seconds-5-no-mip-start/easy/16proc/seed-3/4_lotsize_seed-3_20260502_223218/iterated_local_search/run_3_worker_3/ils_config_5382479114509169608.prm
========================

Selected objective sense:  MINIMIZE
Selected objective  name:  R1921
Selected RHS        name:  B
Selected bound      name:  BOUND
Version identifier: 22.1.2.0 | 2024-11-26 | 0edbb82fd
CPXPARAM_Threads                                 8
CPXPARAM_Parallel                                1
CPXPARAM_MIP_Cuts_Cliques                        2
CPXPARAM_MIP_Strategy_VariableSelect             4
CPXPARAM_MIP_Cuts_FlowCovers                     1
CPXPARAM_MIP_Cuts_Implied                        1
CPXPARAM_MIP_Cuts_PathCut                        2
CPXPARAM_MIP_Cuts_MIRCut                         -1
CPXPARAM_MIP_Cuts_Disjunctive                    -1
CPXPARAM_Emphasis_MIP                            2
CPXPARAM_MIP_Strategy_BBInterval                 0
CPXPARAM_TimeLimit                               5
CPXPARAM_MIP_Limits_CutsFactor                   4
Tried aggregator 1 time.
MIP Presolve eliminated 595 rows and 0 columns.
MIP Presolve added 1190 rows and 0 columns.
MIP Presolve modified 10 coefficients.
Reduced MIP has 2515 rows, 2985 columns, and 7755 nonzeros.
Reduced MIP has 1195 binaries, 0 generals, 0 SOSs, and 0 indicators.
Presolve time = 0.00 sec. (4.53 ticks)
Probing fixed 0 vars, tightened 5487 bounds.
Probing time = 0.01 sec. (18.38 ticks)
Tried aggregator 2 times.
Detecting symmetries...
MIP Presolve modified 1206 coefficients.
Aggregator did 10 substitutions.
Reduced MIP has 2505 rows, 2975 columns, and 7735 nonzeros.
Reduced MIP has 1195 binaries, 0 generals, 0 SOSs, and 0 indicators.
Presolve time = 0.00 sec. (6.66 ticks)
Probing fixed 0 vars, tightened 2401 bounds.
Probing time = 0.00 sec. (6.41 ticks)
Clique table members: 190.
MIP emphasis: optimality.
MIP search method: dynamic search.
Parallel mode: deterministic, using up to 8 threads.
Root relaxation solution time = 0.01 sec. (9.71 ticks)

        Nodes                                         Cuts/
   Node  Left     Objective  IInf  Best Integer    Best Bound    ItCnt     Gap

      0     0   348385.3466   472                 348385.3466      882         
      0     0   527202.7677   563                   Cuts: 726     1982         
      0     0   760452.5090   617                   Cuts: 726     2917         
*     0+    0                       1.01740e+07   760452.5090            92.53%
*     0+    0                      7973370.0000   760452.5090            90.46%
      0     0   907071.1650   739  7973370.0000     Cuts: 726     3745   88.62%
      0     0   995485.2845   690  7973370.0000     Cuts: 726     4450   87.51%
      0     0  1051993.5106   754  7973370.0000     Cuts: 678     4995   86.81%
Detecting symmetries...
*     0+    0                      1940615.0000  1051993.5106            45.79%
      0     0  1087000.3190   810  1940615.0000     Cuts: 515     5465   43.99%
      0     0  1108963.6521   829  1940615.0000     Cuts: 437     5881   42.86%
      0     0  1124236.2517   794  1940615.0000     Cuts: 352     6252   42.07%
      0     0  1134848.3657   843  1940615.0000     Cuts: 336     6554   41.52%
      0     0  1142676.4003   844  1940615.0000     Cuts: 262     6838   41.12%
      0     0  1149023.4707   850  1940615.0000     Cuts: 227     7070   40.79%
      0     0  1153115.2646   864  1940615.0000     Cuts: 209     7301   40.58%
      0     0  1155546.1751   867  1940615.0000     Cuts: 158     7482   40.45%
      0     0  1158740.6436   881  1940615.0000     Cuts: 155     7676   40.29%
      0     0  1161691.0160   888  1940615.0000     Cuts: 168     7877   40.14%
      0     0  1164814.2196   862  1940615.0000     Cuts: 164     8079   39.98%
      0     0  1167955.9815   879  1940615.0000     Cuts: 148     8280   39.82%
      0     0  1170472.3499   871  1940615.0000     Cuts: 118     8431   39.69%
      0     0  1171734.7908   867  1940615.0000     Cuts: 123     8568   39.62%
      0     0  1172651.2454   878  1940615.0000     Cuts: 109     8684   39.57%
      0     0  1173946.4732   876  1940615.0000     Cuts: 101     8841   39.51%
      0     0  1175615.4431   886  1940615.0000      Cuts: 98     9003   39.42%
      0     0  1176857.2352   883  1940615.0000      Cuts: 84     9140   39.36%
      0     0  1177343.7794   892  1940615.0000      Cuts: 53     9231   39.33%
      0     0  1178073.5119   895  1940615.0000      Cuts: 77     9335   39.29%
      0     0  1178389.0804   882  1940615.0000      Cuts: 36     9404   39.28%
      0     0  1178826.0273   891  1940615.0000      Cuts: 63     9490   39.26%
      0     0  1179176.4979   897  1940615.0000      Cuts: 50     9580   39.24%
      0     0  1179507.2435   898  1940615.0000      Cuts: 58     9630   39.22%
      0     0  1179910.5303   893  1940615.0000      Cuts: 51     9694   39.20%
      0     0  1180181.2479   898  1940615.0000      Cuts: 36     9756   39.19%
*     0+    0                      1892085.0000  1180181.2479            37.63%
Detecting symmetries...
      0     2  1180181.2479   898  1892085.0000  1180181.2479     9756   37.63%
Elapsed time = 3.77 sec. (6252.53 ticks, tree = 0.02 MB, solutions = 4)
     17    18  1185184.8700   841  1892085.0000  1181397.7723    12131   37.56%
     47    39  1188691.4732   826  1892085.0000  1181690.4932    14995   37.55%
     79    77  1191514.2193   779  1892085.0000  1181690.4932    20891   37.55%
     95    92  1194477.2880   772  1892085.0000  1181690.4932    22651   37.55%
    149   118  1211995.2630   818  1892085.0000  1181782.3819    25041   37.54%
    235   175  1206915.0833   746  1892085.0000  1181782.3819    32120   37.54%
    322   254  1220461.2245   708  1892085.0000  1181782.3819    38401   37.54%
    407   366  1218972.0888   723  1892085.0000  1181782.3819    48413   37.54%

Clique cuts applied:  0
Cover cuts applied:  10
Implied bound cuts applied:  23
Flow cuts applied:  888
Mixed integer rounding cuts applied:  523
Flow path cuts applied:  83
Multi commodity flow cuts applied:  66
Gomory fractional cuts applied:  6

Root node processing (before b&c):
  Real time             =    3.76 sec. (6244.73 ticks)
Parallel b&c, 8 threads:
  Real time             =    1.25 sec. (2134.57 ticks)
  Sync time (average)   =    0.13 sec.
  Wait time (average)   =    0.00 sec.
                          ------------
Total (root+branch&cut) =    5.00 sec. (8379.31 ticks)
Gap: 37.54%
Upper bound: 1.89208e+06
Lower bound: 1.18178e+06
End of CPLEX run. Time: 5.00477 seconds

===== New CPLEX run =====
Instance: /home/yorig/tuner/mpils-tests/instances/miplib/easy/lotsize.mps
Config: /scratch/yorig/mpils-results-grid-seconds-5-no-mip-start/easy/16proc/seed-3/4_lotsize_seed-3_20260502_223218/iterated_local_search/run_3_worker_3/ils_config_6162747565909431405.prm
========================

Selected objective sense:  MINIMIZE
Selected objective  name:  R1921
Selected RHS        name:  B
Selected bound      name:  BOUND
Version identifier: 22.1.2.0 | 2024-11-26 | 0edbb82fd
CPXPARAM_Threads                                 8
CPXPARAM_Parallel                                1
CPXPARAM_MIP_Cuts_Cliques                        2
CPXPARAM_MIP_Strategy_VariableSelect             4
CPXPARAM_MIP_Cuts_FlowCovers                     1
CPXPARAM_MIP_Cuts_Implied                        1
CPXPARAM_MIP_Cuts_PathCut                        1
CPXPARAM_MIP_Cuts_MIRCut                         -1
CPXPARAM_MIP_Cuts_Disjunctive                    -1
CPXPARAM_Emphasis_MIP                            2
CPXPARAM_MIP_Strategy_BBInterval                 0
CPXPARAM_TimeLimit                               5
CPXPARAM_MIP_Limits_CutsFactor                   4
Tried aggregator 1 time.
MIP Presolve eliminated 595 rows and 0 columns.
MIP Presolve added 1190 rows and 0 columns.
MIP Presolve modified 10 coefficients.
Reduced MIP has 2515 rows, 2985 columns, and 7755 nonzeros.
Reduced MIP has 1195 binaries, 0 generals, 0 SOSs, and 0 indicators.
Presolve time = 0.00 sec. (4.53 ticks)
Probing fixed 0 vars, tightened 5487 bounds.
Probing time = 0.01 sec. (18.38 ticks)
Tried aggregator 2 times.
Detecting symmetries...
MIP Presolve modified 1206 coefficients.
Aggregator did 10 substitutions.
Reduced MIP has 2505 rows, 2975 columns, and 7735 nonzeros.
Reduced MIP has 1195 binaries, 0 generals, 0 SOSs, and 0 indicators.
Presolve time = 0.00 sec. (6.66 ticks)
Probing fixed 0 vars, tightened 2401 bounds.
Probing time = 0.00 sec. (6.41 ticks)
Clique table members: 190.
MIP emphasis: optimality.
MIP search method: dynamic search.
Parallel mode: deterministic, using up to 8 threads.
Root relaxation solution time = 0.01 sec. (9.71 ticks)

        Nodes                                         Cuts/
   Node  Left     Objective  IInf  Best Integer    Best Bound    ItCnt     Gap

      0     0   348385.3466   472                 348385.3466      882         
      0     0   527202.7677   563                   Cuts: 726     1982         
      0     0   760452.5090   617                   Cuts: 726     2917         
*     0+    0                       1.01740e+07   760452.5090            92.53%
*     0+    0                      7973370.0000   760452.5090            90.46%
      0     0   907071.1650   739  7973370.0000     Cuts: 726     3745   88.62%
      0     0   995485.2845   690  7973370.0000     Cuts: 726     4450   87.51%
      0     0  1051993.5106   754  7973370.0000     Cuts: 678     4995   86.81%
Detecting symmetries...
*     0+    0                      1940615.0000  1051993.5106            45.79%
      0     0  1087000.3190   810  1940615.0000     Cuts: 515     5465   43.99%
      0     0  1108963.6521   829  1940615.0000     Cuts: 437     5881   42.86%
      0     0  1124236.2517   794  1940615.0000     Cuts: 352     6252   42.07%
      0     0  1134848.3657   843  1940615.0000     Cuts: 336     6554   41.52%
      0     0  1142676.4003   844  1940615.0000     Cuts: 262     6838   41.12%
      0     0  1149023.4707   850  1940615.0000     Cuts: 227     7070   40.79%
      0     0  1153115.2646   864  1940615.0000     Cuts: 209     7301   40.58%
      0     0  1155546.1751   867  1940615.0000     Cuts: 158     7482   40.45%
      0     0  1158740.6436   881  1940615.0000     Cuts: 155     7676   40.29%
      0     0  1161691.0160   888  1940615.0000     Cuts: 168     7877   40.14%
      0     0  1164814.2196   862  1940615.0000     Cuts: 164     8079   39.98%
      0     0  1167955.9815   879  1940615.0000     Cuts: 148     8280   39.82%
      0     0  1170472.3499   871  1940615.0000     Cuts: 118     8431   39.69%
      0     0  1171734.7908   867  1940615.0000     Cuts: 123     8568   39.62%
      0     0  1172651.2454   878  1940615.0000     Cuts: 109     8684   39.57%
      0     0  1173946.4732   876  1940615.0000     Cuts: 101     8841   39.51%
      0     0  1175615.4431   886  1940615.0000      Cuts: 98     9003   39.42%
      0     0  1176857.2352   883  1940615.0000      Cuts: 84     9140   39.36%
      0     0  1177343.7794   892  1940615.0000      Cuts: 53     9231   39.33%
      0     0  1178073.5119   895  1940615.0000      Cuts: 77     9335   39.29%
      0     0  1178389.0804   882  1940615.0000      Cuts: 36     9404   39.28%
      0     0  1178826.0273   891  1940615.0000      Cuts: 63     9490   39.26%
      0     0  1179176.4979   897  1940615.0000      Cuts: 50     9580   39.24%
      0     0  1179507.2435   898  1940615.0000      Cuts: 58     9630   39.22%
      0     0  1179910.5303   893  1940615.0000      Cuts: 51     9694   39.20%
      0     0  1180181.2479   898  1940615.0000      Cuts: 36     9756   39.19%
*     0+    0                      1892085.0000  1180181.2479            37.63%
Detecting symmetries...
      0     2  1180181.2479   898  1892085.0000  1180181.2479     9756   37.63%
Elapsed time = 3.76 sec. (6252.53 ticks, tree = 0.02 MB, solutions = 4)
      7     5  1183537.9395   842  1892085.0000  1180558.4436    10263   37.61%
     29    18  1189038.7922   835  1892085.0000  1180920.2516    13584   37.59%
     61    51  1196357.6837   776  1892085.0000  1182464.0552    18789   37.50%
     92    84  1200193.5421   789  1892085.0000  1182464.0552    24000   37.50%
    115    96  1189922.9563   838  1892085.0000  1183284.4090    26416   37.46%
    149   119  1204105.3708   794  1892085.0000  1183284.4090    29822   37.46%
    192   164  1205043.3687   745  1892085.0000  1183284.4090    36027   37.46%
    242   202  1201454.0386   761  1892085.0000  1183284.4090    40769   37.46%

Clique cuts applied:  0
Cover cuts applied:  10
Implied bound cuts applied:  23
Flow cuts applied:  956
Mixed integer rounding cuts applied:  541
Flow path cuts applied:  68
Multi commodity flow cuts applied:  78
Gomory fractional cuts applied:  7

Root node processing (before b&c):
  Real time             =    3.75 sec. (6244.73 ticks)
Parallel b&c, 8 threads:
  Real time             =    1.26 sec. (2209.04 ticks)
  Sync time (average)   =    0.14 sec.
  Wait time (average)   =    0.00 sec.
                          ------------
Total (root+branch&cut) =    5.00 sec. (8453.77 ticks)
Gap: 37.46%
Upper bound: 1.89208e+06
Lower bound: 1.18328e+06
End of CPLEX run. Time: 5.0042 seconds
